db/data/235942862911925176241765123435164613777.z3.out
sat
-------------------
4.234621652
